p cnf 213 598
e 1 2 3 0
a 4 5 6 0
e 7 8 9 0
a 10 11 12 0
e 13 14 15 16 17 18 19 20 21 22 23 24 0
a 25 26 0
e 27 28 29 30 31 32 33 34 35 36 37 38 39 40 41 42 43 44 45 46 47 48 49 50 51 52 53 54 55 56 57 58 59 60 61 62 63 64 65 66 67 68 69 70 71 72 73 74 75 76 77 78 79 80 81 82 83 84 85 86 87 88 89 90 91 92 93 94 95 96 97 98 99 100 101 102 103 104 105 106 107 108 109 110 111 112 113 114 115 116 117 118 119 120 121 122 123 124 125 126 127 128 129 130 131 132 133 134 135 136 137 138 139 140 141 142 143 144 145 146 147 148 149 150 151 152 153 154 155 156 157 158 159 160 161 162 163 164 165 166 167 168 169 170 171 172 173 174 175 176 177 178 179 180 181 182 183 184 185 186 187 188 189 190 191 192 193 194 195 196 197 198 199 200 201 202 203 204 205 206 207 208 209 210 211 212 213 0
7 33 0
-4 33 0
-7 4 -33 0
4 34 0
-7 34 0
-4 7 -34 0
33 -35 0
34 -35 0
-33 -34 35 0
8 36 0
-5 36 0
-8 5 -36 0
5 37 0
-8 37 0
-5 8 -37 0
36 -38 0
37 -38 0
-36 -37 38 0
9 39 0
-6 39 0
-9 6 -39 0
6 40 0
-9 40 0
-6 9 -40 0
39 -41 0
40 -41 0
-39 -40 41 0
35 -42 0
38 -42 0
41 -42 0
-35 -38 -41 42 0
13 43 0
-4 43 0
-13 4 -43 0
4 44 0
-13 44 0
-4 13 -44 0
43 -45 0
44 -45 0
-43 -44 45 0
14 46 0
-5 46 0
-14 5 -46 0
5 47 0
-14 47 0
-5 14 -47 0
46 -48 0
47 -48 0
-46 -47 48 0
15 49 0
-6 49 0
-15 6 -49 0
6 50 0
-15 50 0
-6 15 -50 0
49 -51 0
50 -51 0
-49 -50 51 0
45 -52 0
48 -52 0
51 -52 0
-45 -48 -51 52 0
13 53 0
-10 53 0
-13 10 -53 0
10 54 0
-13 54 0
-10 13 -54 0
53 -55 0
54 -55 0
-53 -54 55 0
14 56 0
-11 56 0
-14 11 -56 0
11 57 0
-14 57 0
-11 14 -57 0
56 -58 0
57 -58 0
-56 -57 58 0
15 59 0
-12 59 0
-15 12 -59 0
12 60 0
-15 60 0
-12 15 -60 0
59 -61 0
60 -61 0
-59 -60 61 0
55 -62 0
58 -62 0
61 -62 0
-55 -58 -61 62 0
27 63 0
-1 63 0
-27 1 -63 0
1 64 0
-27 64 0
-1 27 -64 0
63 -65 0
64 -65 0
-63 -64 65 0
28 66 0
-2 66 0
-28 2 -66 0
2 67 0
-28 67 0
-2 28 -67 0
66 -68 0
67 -68 0
-66 -67 68 0
29 69 0
-3 69 0
-29 3 -69 0
3 70 0
-29 70 0
-3 29 -70 0
69 -71 0
70 -71 0
-69 -70 71 0
65 -72 0
68 -72 0
71 -72 0
-65 -68 -71 72 0
27 73 0
-7 73 0
-27 7 -73 0
7 74 0
-27 74 0
-7 27 -74 0
73 -75 0
74 -75 0
-73 -74 75 0
28 76 0
-8 76 0
-28 8 -76 0
8 77 0
-28 77 0
-8 28 -77 0
76 -78 0
77 -78 0
-76 -77 78 0
29 79 0
-9 79 0
-29 9 -79 0
9 80 0
-29 80 0
-9 29 -80 0
79 -81 0
80 -81 0
-79 -80 81 0
75 -82 0
78 -82 0
81 -82 0
-75 -78 -81 82 0
27 83 0
-13 83 0
-27 13 -83 0
13 84 0
-27 84 0
-13 27 -84 0
83 -85 0
84 -85 0
-83 -84 85 0
28 86 0
-14 86 0
-28 14 -86 0
14 87 0
-28 87 0
-14 28 -87 0
86 -88 0
87 -88 0
-86 -87 88 0
29 89 0
-15 89 0
-29 15 -89 0
15 90 0
-29 90 0
-15 29 -90 0
89 -91 0
90 -91 0
-89 -90 91 0
85 -92 0
88 -92 0
91 -92 0
-85 -88 -91 92 0
-72 93 0
-82 93 0
-92 93 0
72 82 92 -93 0
-16 -94 0
-17 -94 0
-18 -94 0
16 17 18 94 0
16 -95 0
-17 -95 0
-18 -95 0
-16 17 18 95 0
-94 96 0
-95 96 0
94 95 -96 0
-25 -97 0
-26 -97 0
25 26 97 0
16 98 0
-27 98 0
-16 27 -98 0
27 99 0
-16 99 0
-27 16 -99 0
98 -100 0
99 -100 0
-98 -99 100 0
17 101 0
-28 101 0
-17 28 -101 0
28 102 0
-17 102 0
-28 17 -102 0
101 -103 0
102 -103 0
-101 -102 103 0
18 104 0
-29 104 0
-18 29 -104 0
29 105 0
-18 105 0
-29 18 -105 0
104 -106 0
105 -106 0
-104 -105 106 0
100 -107 0
103 -107 0
106 -107 0
-100 -103 -106 107 0
19 108 0
-30 108 0
-19 30 -108 0
30 109 0
-19 109 0
-30 19 -109 0
108 -110 0
109 -110 0
-108 -109 110 0
20 111 0
-31 111 0
-20 31 -111 0
31 112 0
-20 112 0
-31 20 -112 0
111 -113 0
112 -113 0
-111 -112 113 0
21 114 0
-32 114 0
-21 32 -114 0
32 115 0
-21 115 0
-32 21 -115 0
114 -116 0
115 -116 0
-114 -115 116 0
110 -117 0
113 -117 0
116 -117 0
-110 -113 -116 117 0
107 -118 0
117 -118 0
-107 -117 118 0
97 119 0
-118 119 0
-97 118 -119 0
-25 -120 0
26 -120 0
25 -26 120 0
19 121 0
-27 121 0
-19 27 -121 0
27 122 0
-19 122 0
-27 19 -122 0
121 -123 0
122 -123 0
-121 -122 123 0
20 124 0
-28 124 0
-20 28 -124 0
28 125 0
-20 125 0
-28 20 -125 0
124 -126 0
125 -126 0
-124 -125 126 0
21 127 0
-29 127 0
-21 29 -127 0
29 128 0
-21 128 0
-29 21 -128 0
127 -129 0
128 -129 0
-127 -128 129 0
123 -130 0
126 -130 0
129 -130 0
-123 -126 -129 130 0
22 131 0
-30 131 0
-22 30 -131 0
30 132 0
-22 132 0
-30 22 -132 0
131 -133 0
132 -133 0
-131 -132 133 0
23 134 0
-31 134 0
-23 31 -134 0
31 135 0
-23 135 0
-31 23 -135 0
134 -136 0
135 -136 0
-134 -135 136 0
24 137 0
-32 137 0
-24 32 -137 0
32 138 0
-24 138 0
-32 24 -138 0
137 -139 0
138 -139 0
-137 -138 139 0
133 -140 0
136 -140 0
139 -140 0
-133 -136 -139 140 0
130 -141 0
140 -141 0
-130 -140 141 0
120 142 0
-141 142 0
-120 141 -142 0
25 -143 0
-26 -143 0
-25 26 143 0
22 144 0
-27 144 0
-22 27 -144 0
27 145 0
-22 145 0
-27 22 -145 0
144 -146 0
145 -146 0
-144 -145 146 0
23 147 0
-28 147 0
-23 28 -147 0
28 148 0
-23 148 0
-28 23 -148 0
147 -149 0
148 -149 0
-147 -148 149 0
24 150 0
-29 150 0
-24 29 -150 0
29 151 0
-24 151 0
-29 24 -151 0
150 -152 0
151 -152 0
-150 -151 152 0
146 -153 0
149 -153 0
152 -153 0
-146 -149 -152 153 0
143 154 0
-153 154 0
-143 153 -154 0
-27 -155 0
-28 -155 0
-29 -155 0
27 28 29 155 0
-30 -156 0
31 -156 0
-32 -156 0
30 -31 32 156 0
-30 -157 0
-31 -157 0
32 -157 0
30 31 -32 157 0
-30 -158 0
-31 -158 0
-32 -158 0
30 31 32 158 0
-156 159 0
-157 159 0
-158 159 0
156 157 158 -159 0
155 160 0
-159 160 0
-155 159 -160 0
-27 -161 0
-28 -161 0
29 -161 0
27 28 -29 161 0
-30 -162 0
31 -162 0
32 -162 0
30 -31 -32 162 0
-162 163 0
-158 163 0
-156 163 0
-157 163 0
162 158 156 157 -163 0
161 164 0
-163 164 0
-161 163 -164 0
-27 -165 0
28 -165 0
-29 -165 0
27 -28 29 165 0
30 -166 0
-31 -166 0
-32 -166 0
-30 31 32 166 0
-158 167 0
-162 167 0
-157 167 0
-166 167 0
-156 167 0
158 162 157 166 156 -167 0
165 168 0
-167 168 0
-165 167 -168 0
-27 -169 0
28 -169 0
29 -169 0
27 -28 -29 169 0
30 -170 0
-31 -170 0
32 -170 0
-30 31 -32 170 0
-157 171 0
-170 171 0
-156 171 0
-162 171 0
157 170 156 162 -171 0
169 172 0
-171 172 0
-169 171 -172 0
27 -173 0
-28 -173 0
-29 -173 0
-27 28 29 173 0
-156 174 0
-166 174 0
156 166 -174 0
173 175 0
-174 175 0
-173 174 -175 0
27 -176 0
-28 -176 0
29 -176 0
-27 28 -29 176 0
-162 177 0
-170 177 0
162 170 -177 0
176 178 0
-177 178 0
-176 177 -178 0
16 179 0
-19 179 0
-16 19 -179 0
19 180 0
-16 180 0
-19 16 -180 0
179 -181 0
180 -181 0
-179 -180 181 0
17 182 0
-20 182 0
-17 20 -182 0
20 183 0
-17 183 0
-20 17 -183 0
182 -184 0
183 -184 0
-182 -183 184 0
18 185 0
-21 185 0
-18 21 -185 0
21 186 0
-18 186 0
-21 18 -186 0
185 -187 0
186 -187 0
-185 -186 187 0
181 -188 0
184 -188 0
187 -188 0
-181 -184 -187 188 0
19 189 0
-22 189 0
-19 22 -189 0
22 190 0
-19 190 0
-22 19 -190 0
189 -191 0
190 -191 0
-189 -190 191 0
20 192 0
-23 192 0
-20 23 -192 0
23 193 0
-20 193 0
-23 20 -193 0
192 -194 0
193 -194 0
-192 -193 194 0
21 195 0
-24 195 0
-21 24 -195 0
24 196 0
-21 196 0
-24 21 -196 0
195 -197 0
196 -197 0
-195 -196 197 0
191 -198 0
194 -198 0
197 -198 0
-191 -194 -197 198 0
188 199 0
-198 199 0
-188 198 -199 0
-22 -200 0
-23 -200 0
24 -200 0
22 23 -24 200 0
-22 -201 0
23 -201 0
24 -201 0
22 -23 -24 201 0
22 -202 0
-23 -202 0
24 -202 0
-22 23 -24 202 0
-200 203 0
-201 203 0
-202 203 0
200 201 202 -203 0
-1 -204 0
1 204 0
1 -205 0
-2 -205 0
-1 2 205 0
-204 206 0
-205 206 0
204 205 -206 0
-7 -207 0
7 207 0
7 -208 0
-8 -208 0
-7 8 208 0
-207 209 0
-208 209 0
207 208 -209 0
-13 -210 0
13 210 0
13 -211 0
-14 -211 0
-13 14 211 0
-210 212 0
-211 212 0
210 211 -212 0
-42 -213 0
-52 -213 0
-62 -213 0
93 -213 0
96 -213 0
119 -213 0
142 -213 0
154 -213 0
160 -213 0
164 -213 0
168 -213 0
172 -213 0
175 -213 0
178 -213 0
199 -213 0
203 -213 0
206 -213 0
209 -213 0
212 -213 0
42 52 62 -93 -96 -119 -142 -154 -160 -164 -168 -172 -175 -178 -199 -203 -206 -209 -212 213 0
213 0

